proyfinal/src/viki/013/experimentInOfficeAgust.take6.output/26887c27-a7e3-48a4-af3b-a33aea6cc6e5.als.out
Reading from standard input... Use '--help' for help.
============================[ Problem Statistics ]=============================
|                                                                             |
|  Number of variables:         87638                                         |
|  Number of clauses:          161767                                         |
|  Parse time:                   0.03 s                                       |
|                                                                             |
============================[ Search Statistics ]==============================
| Conflicts |          ORIGINAL         |          LEARNT          | Progress |
|           |    Vars  Clauses Literals |    Limit  Clauses Lit/Cl |          |
===============================================================================
|       100 |   64005   110933   277202 |    40675      100     18 | 26.967 % |
|       250 |   64005   110933   277202 |    44742      250     15 | 26.967 % |
|       475 |   63965   110857   277026 |    49217      473     36 | 27.012 % |
|       812 |   63964   110771   276828 |    54139      809     51 | 27.013 % |
|      1318 |   55121    84257   211529 |    59552     1280     84 | 37.104 % |
|      2077 |   55050    83970   210862 |    65508     2019     78 | 37.185 % |
|      3216 |   55012    83852   210554 |    72059     3137     94 | 37.228 % |
|      4924 |   54971    83657   210164 |    79264     4844     81 | 37.275 % |
|      7486 |   54238    82863   208275 |    87191     7303     74 | 38.111 % |
|     11330 |   53612    78642   197838 |    95910    10191     70 | 38.826 % |
|     17096 |   53546    78351   197136 |   105501    15952     67 | 38.901 % |
===============================================================================
restarts              : 77
conflicts             : 21417          (8126 /sec)
decisions             : 74031          (0.00 % random) (28090 /sec)
propagations          : 29164083       (11065918 /sec)
conflict literals     : 1438459        (44.85 % deleted)
Memory used           : 36.73 MB
CPU time              : 2.63549 s

INDETERMINATE
